96 96
42 17
47 34
10 96
21 95
5 59
30 3
16 25
2 7
3 66
18 55
29 73
5 9
19 75
40 1
23 46
14 31
26 65
22 36
46 14
2 39
45 32
32 30
39 12
34 18
37 79
12 69
24 90
6 52
29 44
12 47
47 89
25 15
6 45
8 87
23 81
44 26
4 93
38 43
30 8
40 56
11 68
31 24
13 2
37 16
43 71
43 86
8 38
48 33
13 53
19 51
27 72
4 5
1 84
35 6
46 80
32 67
44 82
39 78
24 21
9 54
16 13
38 48
34 49
41 22
17 10
48 27
11 85
28 62
20 20
7 50
17 37
1 58
26 40
33 91
36 41
3 88
33 77
10 60
18 64
22 61
25 19
35 83
15 92
42 63
9 57
31 23
36 29
15 35
20 28
28 42
45 76
27 11
41 4
7 74
14 94
21 70
